certificates/rado_a13_c178_N34.drat
15 -33 12 0
-33 12 0
d 15 -33 12 0
32 -11 0
-34 0
12 0
-32 33 0
33 0
-11 0
32 0
-15 0
-10 0
17 0
14 0
28 0
27 0
-21 0
-13 0
-18 0
-8 0
-16 0
-29 0
0
